c 0.011152267456054688 (encode time in sec)
p cnf 140 1048
1 2 3 8 0
1 2 -3 4 0
1 -2 3 6 0
1 -2 -3 5 0
-1 2 3 7 0
-1 2 -3 9 0
-1 -2 3 10 0
-1 -2 -3 11 0
12 13 14 22 0
12 13 -14 18 0
12 -13 14 16 0
12 -13 -14 15 0
-12 13 14 17 0
-12 13 -14 19 0
-12 -13 14 20 0
-12 -13 -14 21 0
23 24 25 32 0
23 24 -25 33 0
23 -24 25 26 0
23 -24 -25 27 0
-23 24 25 28 0
-23 24 -25 29 0
-23 -24 25 30 0
-23 -24 -25 31 0
34 35 36 1 2 3 12 13 14 37 0
34 35 36 1 2 3 12 13 -14 38 0
34 35 36 1 2 3 12 -13 14 37 0
34 35 36 1 2 3 12 -13 -14 37 0
34 35 36 1 2 3 -12 13 14 0
34 35 36 1 2 3 -12 13 -14 37 0
34 35 36 1 2 3 -12 -13 14 0
34 35 36 1 2 3 -12 -13 -14 37 0
34 35 36 1 2 -3 12 13 14 37 0
34 35 36 1 2 -3 12 13 -14 41 0
34 35 36 1 2 -3 12 -13 14 39 0
34 35 36 1 2 -3 12 -13 -14 0
34 35 36 1 2 -3 -12 13 14 0
34 35 36 1 2 -3 -12 13 -14 0
34 35 36 1 2 -3 -12 -13 14 0
34 35 36 1 2 -3 -12 -13 -14 0
34 35 36 1 -2 3 12 13 14 37 0
34 35 36 1 -2 3 12 13 -14 0
34 35 36 1 -2 3 12 -13 14 0
34 35 36 1 -2 3 12 -13 -14 0
34 35 36 1 -2 3 -12 13 14 0
34 35 36 1 -2 3 -12 13 -14 0
34 35 36 1 -2 3 -12 -13 14 0
34 35 36 1 -2 3 -12 -13 -14 37 0
34 35 36 1 -2 -3 12 13 14 38 0
34 35 36 1 -2 -3 12 13 -14 0
34 35 36 1 -2 -3 12 -13 14 0
34 35 36 1 -2 -3 12 -13 -14 0
34 35 36 1 -2 -3 -12 13 14 0
34 35 36 1 -2 -3 -12 13 -14 0
34 35 36 1 -2 -3 -12 -13 14 0
34 35 36 1 -2 -3 -12 -13 -14 37 0
34 35 36 -1 2 3 12 13 14 37 0
34 35 36 -1 2 3 12 13 -14 0
34 35 36 -1 2 3 12 -13 14 0
34 35 36 -1 2 3 12 -13 -14 0
34 35 36 -1 2 3 -12 13 14 0
34 35 36 -1 2 3 -12 13 -14 0
34 35 36 -1 2 3 -12 -13 14 0
34 35 36 -1 2 3 -12 -13 -14 0
34 35 36 -1 2 -3 12 13 14 0
34 35 36 -1 2 -3 12 13 -14 0
34 35 36 -1 2 -3 12 -13 14 0
34 35 36 -1 2 -3 12 -13 -14 0
34 35 36 -1 2 -3 -12 13 14 0
34 35 36 -1 2 -3 -12 13 -14 0
34 35 36 -1 2 -3 -12 -13 14 0
34 35 36 -1 2 -3 -12 -13 -14 37 0
34 35 36 -1 -2 3 12 13 14 37 0
34 35 36 -1 -2 3 12 13 -14 0
34 35 36 -1 -2 3 12 -13 14 37 0
34 35 36 -1 -2 3 12 -13 -14 0
34 35 36 -1 -2 3 -12 13 14 0
34 35 36 -1 -2 3 -12 13 -14 0
34 35 36 -1 -2 3 -12 -13 14 37 0
34 35 36 -1 -2 3 -12 -13 -14 37 0
34 35 36 -1 -2 -3 12 13 14 0
34 35 36 -1 -2 -3 12 13 -14 37 0
34 35 36 -1 -2 -3 12 -13 14 37 0
34 35 36 -1 -2 -3 12 -13 -14 37 0
34 35 36 -1 -2 -3 -12 13 14 37 0
34 35 36 -1 -2 -3 -12 13 -14 0
34 35 36 -1 -2 -3 -12 -13 14 37 0
34 35 36 -1 -2 -3 -12 -13 -14 37 0
34 35 -36 1 2 3 12 13 14 37 0
34 35 -36 1 2 3 12 13 -14 0
34 35 -36 1 2 3 12 -13 14 37 0
34 35 -36 1 2 3 12 -13 -14 37 0
34 35 -36 1 2 3 -12 13 14 38 0
34 35 -36 1 2 3 -12 13 -14 37 0
34 35 -36 1 2 3 -12 -13 14 0
34 35 -36 1 2 3 -12 -13 -14 37 0
34 35 -36 1 2 -3 12 13 14 37 0
34 35 -36 1 2 -3 12 13 -14 41 0
34 35 -36 1 2 -3 12 -13 14 42 0
34 35 -36 1 2 -3 12 -13 -14 0
34 35 -36 1 2 -3 -12 13 14 0
34 35 -36 1 2 -3 -12 13 -14 0
34 35 -36 1 2 -3 -12 -13 14 0
34 35 -36 1 2 -3 -12 -13 -14 0
34 35 -36 1 -2 3 12 13 14 37 0
34 35 -36 1 -2 3 12 13 -14 38 0
34 35 -36 1 -2 3 12 -13 14 43 0
34 35 -36 1 -2 3 12 -13 -14 0
34 35 -36 1 -2 3 -12 13 14 0
34 35 -36 1 -2 3 -12 13 -14 0
34 35 -36 1 -2 3 -12 -13 14 0
34 35 -36 1 -2 3 -12 -13 -14 37 0
34 35 -36 1 -2 -3 12 13 14 0
34 35 -36 1 -2 -3 12 13 -14 44 0
34 35 -36 1 -2 -3 12 -13 14 53 0
34 35 -36 1 -2 -3 12 -13 -14 0
34 35 -36 1 -2 -3 -12 13 14 0
34 35 -36 1 -2 -3 -12 13 -14 0
34 35 -36 1 -2 -3 -12 -13 14 0
34 35 -36 1 -2 -3 -12 -13 -14 37 0
34 35 -36 -1 2 3 12 13 14 37 0
34 35 -36 -1 2 3 12 13 -14 61 0
34 35 -36 -1 2 3 12 -13 14 0
34 35 -36 -1 2 3 12 -13 -14 0
34 35 -36 -1 2 3 -12 13 14 0
34 35 -36 -1 2 3 -12 13 -14 0
34 35 -36 -1 2 3 -12 -13 14 0
34 35 -36 -1 2 3 -12 -13 -14 0
34 35 -36 -1 2 -3 12 13 14 0
34 35 -36 -1 2 -3 12 13 -14 0
34 35 -36 -1 2 -3 12 -13 14 0
34 35 -36 -1 2 -3 12 -13 -14 0
34 35 -36 -1 2 -3 -12 13 14 0
34 35 -36 -1 2 -3 -12 13 -14 0
34 35 -36 -1 2 -3 -12 -13 14 0
34 35 -36 -1 2 -3 -12 -13 -14 37 0
34 35 -36 -1 -2 3 12 13 14 37 0
34 35 -36 -1 -2 3 12 13 -14 0
34 35 -36 -1 -2 3 12 -13 14 37 0
34 35 -36 -1 -2 3 12 -13 -14 0
34 35 -36 -1 -2 3 -12 13 14 0
34 35 -36 -1 -2 3 -12 13 -14 0
34 35 -36 -1 -2 3 -12 -13 14 37 0
34 35 -36 -1 -2 3 -12 -13 -14 37 0
34 35 -36 -1 -2 -3 12 13 14 0
34 35 -36 -1 -2 -3 12 13 -14 37 0
34 35 -36 -1 -2 -3 12 -13 14 37 0
34 35 -36 -1 -2 -3 12 -13 -14 37 0
34 35 -36 -1 -2 -3 -12 13 14 37 0
34 35 -36 -1 -2 -3 -12 13 -14 0
34 35 -36 -1 -2 -3 -12 -13 14 37 0
34 35 -36 -1 -2 -3 -12 -13 -14 37 0
34 -35 36 1 2 3 12 13 14 37 0
34 -35 36 1 2 3 12 13 -14 0
34 -35 36 1 2 3 12 -13 14 37 0
34 -35 36 1 2 3 12 -13 -14 37 0
34 -35 36 1 2 3 -12 13 14 0
34 -35 36 1 2 3 -12 13 -14 37 0
34 -35 36 1 2 3 -12 -13 14 0
34 -35 36 1 2 3 -12 -13 -14 37 0
34 -35 36 1 2 -3 12 13 14 37 0
34 -35 36 1 2 -3 12 13 -14 0
34 -35 36 1 2 -3 12 -13 14 41 0
34 -35 36 1 2 -3 12 -13 -14 45 0
34 -35 36 1 2 -3 -12 13 14 0
34 -35 36 1 2 -3 -12 13 -14 0
34 -35 36 1 2 -3 -12 -13 14 0
34 -35 36 1 2 -3 -12 -13 -14 0
34 -35 36 1 -2 3 12 13 14 37 0
34 -35 36 1 -2 3 12 13 -14 0
34 -35 36 1 -2 3 12 -13 14 48 0
34 -35 36 1 -2 3 12 -13 -14 62 0
34 -35 36 1 -2 3 -12 13 14 0
34 -35 36 1 -2 3 -12 13 -14 0
34 -35 36 1 -2 3 -12 -13 14 0
34 -35 36 1 -2 3 -12 -13 -14 37 0
34 -35 36 1 -2 -3 12 13 14 0
34 -35 36 1 -2 -3 12 13 -14 46 0
34 -35 36 1 -2 -3 12 -13 14 54 0
34 -35 36 1 -2 -3 12 -13 -14 0
34 -35 36 1 -2 -3 -12 13 14 0
34 -35 36 1 -2 -3 -12 13 -14 0
34 -35 36 1 -2 -3 -12 -13 14 0
34 -35 36 1 -2 -3 -12 -13 -14 37 0
34 -35 36 -1 2 3 12 13 14 37 0
34 -35 36 -1 2 3 12 13 -14 45 0
34 -35 36 -1 2 3 12 -13 14 55 0
34 -35 36 -1 2 3 12 -13 -14 0
34 -35 36 -1 2 3 -12 13 14 0
34 -35 36 -1 2 3 -12 13 -14 0
34 -35 36 -1 2 3 -12 -13 14 0
34 -35 36 -1 2 3 -12 -13 -14 0
34 -35 36 -1 2 -3 12 13 14 38 0
34 -35 36 -1 2 -3 12 13 -14 0
34 -35 36 -1 2 -3 12 -13 14 0
34 -35 36 -1 2 -3 12 -13 -14 0
34 -35 36 -1 2 -3 -12 13 14 0
34 -35 36 -1 2 -3 -12 13 -14 0
34 -35 36 -1 2 -3 -12 -13 14 0
34 -35 36 -1 2 -3 -12 -13 -14 37 0
34 -35 36 -1 -2 3 12 13 14 37 0
34 -35 36 -1 -2 3 12 13 -14 38 0
34 -35 36 -1 -2 3 12 -13 14 37 0
34 -35 36 -1 -2 3 12 -13 -14 0
34 -35 36 -1 -2 3 -12 13 14 0
34 -35 36 -1 -2 3 -12 13 -14 0
34 -35 36 -1 -2 3 -12 -13 14 37 0
34 -35 36 -1 -2 3 -12 -13 -14 37 0
34 -35 36 -1 -2 -3 12 13 14 0
34 -35 36 -1 -2 -3 12 13 -14 37 0
34 -35 36 -1 -2 -3 12 -13 14 37 0
34 -35 36 -1 -2 -3 12 -13 -14 37 0
34 -35 36 -1 -2 -3 -12 13 14 37 0
34 -35 36 -1 -2 -3 -12 13 -14 0
34 -35 36 -1 -2 -3 -12 -13 14 37 0
34 -35 36 -1 -2 -3 -12 -13 -14 37 0
34 -35 -36 1 2 3 12 13 14 37 0
34 -35 -36 1 2 3 12 13 -14 0
34 -35 -36 1 2 3 12 -13 14 37 0
34 -35 -36 1 2 3 12 -13 -14 37 0
34 -35 -36 1 2 3 -12 13 14 0
34 -35 -36 1 2 3 -12 13 -14 37 0
34 -35 -36 1 2 3 -12 -13 14 0
34 -35 -36 1 2 3 -12 -13 -14 37 0
34 -35 -36 1 2 -3 12 13 14 37 0
34 -35 -36 1 2 -3 12 13 -14 0
34 -35 -36 1 2 -3 12 -13 14 0
34 -35 -36 1 2 -3 12 -13 -14 61 0
34 -35 -36 1 2 -3 -12 13 14 59 0
34 -35 -36 1 2 -3 -12 13 -14 0
34 -35 -36 1 2 -3 -12 -13 14 0
34 -35 -36 1 2 -3 -12 -13 -14 0
34 -35 -36 1 -2 3 12 13 14 37 0
34 -35 -36 1 -2 3 12 13 -14 0
34 -35 -36 1 -2 3 12 -13 14 58 0
34 -35 -36 1 -2 3 12 -13 -14 51 0
34 -35 -36 1 -2 3 -12 13 14 63 0
34 -35 -36 1 -2 3 -12 13 -14 0
34 -35 -36 1 -2 3 -12 -13 14 0
34 -35 -36 1 -2 3 -12 -13 -14 37 0
34 -35 -36 1 -2 -3 12 13 14 0
34 -35 -36 1 -2 -3 12 13 -14 0
34 -35 -36 1 -2 -3 12 -13 14 50 0
34 -35 -36 1 -2 -3 12 -13 -14 52 0
34 -35 -36 1 -2 -3 -12 13 14 56 0
34 -35 -36 1 -2 -3 -12 13 -14 0
34 -35 -36 1 -2 -3 -12 -13 14 0
34 -35 -36 1 -2 -3 -12 -13 -14 37 0
34 -35 -36 -1 2 3 12 13 14 37 0
34 -35 -36 -1 2 3 12 13 -14 0
34 -35 -36 -1 2 3 12 -13 14 59 0
34 -35 -36 -1 2 3 12 -13 -14 64 0
34 -35 -36 -1 2 3 -12 13 14 0
34 -35 -36 -1 2 3 -12 13 -14 0
34 -35 -36 -1 2 3 -12 -13 14 0
34 -35 -36 -1 2 3 -12 -13 -14 0
34 -35 -36 -1 2 -3 12 13 14 0
34 -35 -36 -1 2 -3 12 13 -14 38 0
34 -35 -36 -1 2 -3 12 -13 14 49 0
34 -35 -36 -1 2 -3 12 -13 -14 0
34 -35 -36 -1 2 -3 -12 13 14 0
34 -35 -36 -1 2 -3 -12 13 -14 0
34 -35 -36 -1 2 -3 -12 -13 14 0
34 -35 -36 -1 2 -3 -12 -13 -14 37 0
34 -35 -36 -1 -2 3 12 13 14 37 0
34 -35 -36 -1 -2 3 12 13 -14 0
34 -35 -36 -1 -2 3 12 -13 14 37 0
34 -35 -36 -1 -2 3 12 -13 -14 0
34 -35 -36 -1 -2 3 -12 13 14 0
34 -35 -36 -1 -2 3 -12 13 -14 0
34 -35 -36 -1 -2 3 -12 -13 14 37 0
34 -35 -36 -1 -2 3 -12 -13 -14 37 0
34 -35 -36 -1 -2 -3 12 13 14 0
34 -35 -36 -1 -2 -3 12 13 -14 37 0
34 -35 -36 -1 -2 -3 12 -13 14 37 0
34 -35 -36 -1 -2 -3 12 -13 -14 37 0
34 -35 -36 -1 -2 -3 -12 13 14 37 0
34 -35 -36 -1 -2 -3 -12 13 -14 0
34 -35 -36 -1 -2 -3 -12 -13 14 37 0
34 -35 -36 -1 -2 -3 -12 -13 -14 37 0
-34 35 36 1 2 3 12 13 14 37 0
-34 35 36 1 2 3 12 13 -14 0
-34 35 36 1 2 3 12 -13 14 37 0
-34 35 36 1 2 3 12 -13 -14 37 0
-34 35 36 1 2 3 -12 13 14 0
-34 35 36 1 2 3 -12 13 -14 37 0
-34 35 36 1 2 3 -12 -13 14 0
-34 35 36 1 2 3 -12 -13 -14 37 0
-34 35 36 1 2 -3 12 13 14 37 0
-34 35 36 1 2 -3 12 13 -14 0
-34 35 36 1 2 -3 12 -13 14 0
-34 35 36 1 2 -3 12 -13 -14 0
-34 35 36 1 2 -3 -12 13 14 39 0
-34 35 36 1 2 -3 -12 13 -14 38 0
-34 35 36 1 2 -3 -12 -13 14 0
-34 35 36 1 2 -3 -12 -13 -14 0
-34 35 36 1 -2 3 12 13 14 37 0
-34 35 36 1 -2 3 12 13 -14 0
-34 35 36 1 -2 3 12 -13 14 0
-34 35 36 1 -2 3 12 -13 -14 60 0
-34 35 36 1 -2 3 -12 13 14 59 0
-34 35 36 1 -2 3 -12 13 -14 39 0
-34 35 36 1 -2 3 -12 -13 14 0
-34 35 36 1 -2 3 -12 -13 -14 37 0
-34 35 36 1 -2 -3 12 13 14 0
-34 35 36 1 -2 -3 12 13 -14 0
-34 35 36 1 -2 -3 12 -13 14 0
-34 35 36 1 -2 -3 12 -13 -14 66 0
-34 35 36 1 -2 -3 -12 13 14 70 0
-34 35 36 1 -2 -3 -12 13 -14 37 0
-34 35 36 1 -2 -3 -12 -13 14 0
-34 35 36 1 -2 -3 -12 -13 -14 37 0
-34 35 36 -1 2 3 12 13 14 37 0
-34 35 36 -1 2 3 12 13 -14 0
-34 35 36 -1 2 3 12 -13 14 63 0
-34 35 36 -1 2 3 12 -13 -14 57 0
-34 35 36 -1 2 3 -12 13 14 69 0
-34 35 36 -1 2 3 -12 13 -14 0
-34 35 36 -1 2 3 -12 -13 14 0
-34 35 36 -1 2 3 -12 -13 -14 0
-34 35 36 -1 2 -3 12 13 14 0
-34 35 36 -1 2 -3 12 13 -14 0
-34 35 36 -1 2 -3 12 -13 14 39 0
-34 35 36 -1 2 -3 12 -13 -14 0
-34 35 36 -1 2 -3 -12 13 14 0
-34 35 36 -1 2 -3 -12 13 -14 0
-34 35 36 -1 2 -3 -12 -13 14 0
-34 35 36 -1 2 -3 -12 -13 -14 37 0
-34 35 36 -1 -2 3 12 13 14 37 0
-34 35 36 -1 -2 3 12 13 -14 0
-34 35 36 -1 -2 3 12 -13 14 37 0
-34 35 36 -1 -2 3 12 -13 -14 38 0
-34 35 36 -1 -2 3 -12 13 14 0
-34 35 36 -1 -2 3 -12 13 -14 0
-34 35 36 -1 -2 3 -12 -13 14 37 0
-34 35 36 -1 -2 3 -12 -13 -14 37 0
-34 35 36 -1 -2 -3 12 13 14 38 0
-34 35 36 -1 -2 -3 12 13 -14 37 0
-34 35 36 -1 -2 -3 12 -13 14 37 0
-34 35 36 -1 -2 -3 12 -13 -14 37 0
-34 35 36 -1 -2 -3 -12 13 14 37 0
-34 35 36 -1 -2 -3 -12 13 -14 0
-34 35 36 -1 -2 -3 -12 -13 14 37 0
-34 35 36 -1 -2 -3 -12 -13 -14 37 0
-34 35 -36 1 2 3 12 13 14 37 0
-34 35 -36 1 2 3 12 13 -14 0
-34 35 -36 1 2 3 12 -13 14 37 0
-34 35 -36 1 2 3 12 -13 -14 37 0
-34 35 -36 1 2 3 -12 13 14 0
-34 35 -36 1 2 3 -12 13 -14 37 0
-34 35 -36 1 2 3 -12 -13 14 38 0
-34 35 -36 1 2 3 -12 -13 -14 37 0
-34 35 -36 1 2 -3 12 13 14 37 0
-34 35 -36 1 2 -3 12 13 -14 0
-34 35 -36 1 2 -3 12 -13 14 0
-34 35 -36 1 2 -3 12 -13 -14 0
-34 35 -36 1 2 -3 -12 13 14 0
-34 35 -36 1 2 -3 -12 13 -14 0
-34 35 -36 1 2 -3 -12 -13 14 38 0
-34 35 -36 1 2 -3 -12 -13 -14 0
-34 35 -36 1 -2 3 12 13 14 37 0
-34 35 -36 1 -2 3 12 13 -14 0
-34 35 -36 1 -2 3 12 -13 14 0
-34 35 -36 1 -2 3 12 -13 -14 0
-34 35 -36 1 -2 3 -12 13 14 55 0
-34 35 -36 1 -2 3 -12 13 -14 59 0
-34 35 -36 1 -2 3 -12 -13 14 38 0
-34 35 -36 1 -2 3 -12 -13 -14 37 0
-34 35 -36 1 -2 -3 12 13 14 0
-34 35 -36 1 -2 -3 12 13 -14 0
-34 35 -36 1 -2 -3 12 -13 14 0
-34 35 -36 1 -2 -3 12 -13 -14 67 0
-34 35 -36 1 -2 -3 -12 13 14 70 0
-34 35 -36 1 -2 -3 -12 13 -14 47 0
-34 35 -36 1 -2 -3 -12 -13 14 0
-34 35 -36 1 -2 -3 -12 -13 -14 37 0
-34 35 -36 -1 2 3 12 13 14 37 0
-34 35 -36 -1 2 3 12 13 -14 0
-34 35 -36 -1 2 3 12 -13 14 0
-34 35 -36 -1 2 3 12 -13 -14 68 0
-34 35 -36 -1 2 3 -12 13 14 49 0
-34 35 -36 -1 2 3 -12 13 -14 65 0
-34 35 -36 -1 2 3 -12 -13 14 0
-34 35 -36 -1 2 3 -12 -13 -14 0
-34 35 -36 -1 2 -3 12 13 14 0
-34 35 -36 -1 2 -3 12 13 -14 0
-34 35 -36 -1 2 -3 12 -13 14 55 0
-34 35 -36 -1 2 -3 12 -13 -14 65 0
-34 35 -36 -1 2 -3 -12 13 14 41 0
-34 35 -36 -1 2 -3 -12 13 -14 41 0
-34 35 -36 -1 2 -3 -12 -13 14 0
-34 35 -36 -1 2 -3 -12 -13 -14 37 0
-34 35 -36 -1 -2 3 12 13 14 37 0
-34 35 -36 -1 -2 3 12 13 -14 0
-34 35 -36 -1 -2 3 12 -13 14 37 0
-34 35 -36 -1 -2 3 12 -13 -14 0
-34 35 -36 -1 -2 3 -12 13 14 0
-34 35 -36 -1 -2 3 -12 13 -14 0
-34 35 -36 -1 -2 3 -12 -13 14 37 0
-34 35 -36 -1 -2 3 -12 -13 -14 37 0
-34 35 -36 -1 -2 -3 12 13 14 0
-34 35 -36 -1 -2 -3 12 13 -14 37 0
-34 35 -36 -1 -2 -3 12 -13 14 37 0
-34 35 -36 -1 -2 -3 12 -13 -14 37 0
-34 35 -36 -1 -2 -3 -12 13 14 37 0
-34 35 -36 -1 -2 -3 -12 13 -14 0
-34 35 -36 -1 -2 -3 -12 -13 14 37 0
-34 35 -36 -1 -2 -3 -12 -13 -14 37 0
-34 -35 36 1 2 3 12 13 14 37 0
-34 -35 36 1 2 3 12 13 -14 0
-34 -35 36 1 2 3 12 -13 14 37 0
-34 -35 36 1 2 3 12 -13 -14 37 0
-34 -35 36 1 2 3 -12 13 14 0
-34 -35 36 1 2 3 -12 13 -14 37 0
-34 -35 36 1 2 3 -12 -13 14 0
-34 -35 36 1 2 3 -12 -13 -14 37 0
-34 -35 36 1 2 -3 12 13 14 37 0
-34 -35 36 1 2 -3 12 13 -14 0
-34 -35 36 1 2 -3 12 -13 14 0
-34 -35 36 1 2 -3 12 -13 -14 0
-34 -35 36 1 2 -3 -12 13 14 0
-34 -35 36 1 2 -3 -12 13 -14 0
-34 -35 36 1 2 -3 -12 -13 14 0
-34 -35 36 1 2 -3 -12 -13 -14 38 0
-34 -35 36 1 -2 3 12 13 14 37 0
-34 -35 36 1 -2 3 12 13 -14 0
-34 -35 36 1 -2 3 12 -13 14 0
-34 -35 36 1 -2 3 12 -13 -14 0
-34 -35 36 1 -2 3 -12 13 14 0
-34 -35 36 1 -2 3 -12 13 -14 0
-34 -35 36 1 -2 3 -12 -13 14 0
-34 -35 36 1 -2 3 -12 -13 -14 37 0
-34 -35 36 1 -2 -3 12 13 14 0
-34 -35 36 1 -2 -3 12 13 -14 0
-34 -35 36 1 -2 -3 12 -13 14 0
-34 -35 36 1 -2 -3 12 -13 -14 0
-34 -35 36 1 -2 -3 -12 13 14 0
-34 -35 36 1 -2 -3 -12 13 -14 37 0
-34 -35 36 1 -2 -3 -12 -13 14 46 0
-34 -35 36 1 -2 -3 -12 -13 -14 37 0
-34 -35 36 -1 2 3 12 13 14 37 0
-34 -35 36 -1 2 3 12 13 -14 0
-34 -35 36 -1 2 3 12 -13 14 0
-34 -35 36 -1 2 3 12 -13 -14 0
-34 -35 36 -1 2 3 -12 13 14 0
-34 -35 36 -1 2 3 -12 13 -14 42 0
-34 -35 36 -1 2 3 -12 -13 14 38 0
-34 -35 36 -1 2 3 -12 -13 -14 0
-34 -35 36 -1 2 -3 12 13 14 0
-34 -35 36 -1 2 -3 12 13 -14 0
-34 -35 36 -1 2 -3 12 -13 14 0
-34 -35 36 -1 2 -3 12 -13 -14 42 0
-34 -35 36 -1 2 -3 -12 13 14 41 0
-34 -35 36 -1 2 -3 -12 13 -14 41 0
-34 -35 36 -1 2 -3 -12 -13 14 0
-34 -35 36 -1 2 -3 -12 -13 -14 37 0
-34 -35 36 -1 -2 3 12 13 14 37 0
-34 -35 36 -1 -2 3 12 13 -14 0
-34 -35 36 -1 -2 3 12 -13 14 37 0
-34 -35 36 -1 -2 3 12 -13 -14 0
-34 -35 36 -1 -2 3 -12 13 14 38 0
-34 -35 36 -1 -2 3 -12 13 -14 44 0
-34 -35 36 -1 -2 3 -12 -13 14 37 0
-34 -35 36 -1 -2 3 -12 -13 -14 37 0
-34 -35 36 -1 -2 -3 12 13 14 0
-34 -35 36 -1 -2 -3 12 13 -14 37 0
-34 -35 36 -1 -2 -3 12 -13 14 37 0
-34 -35 36 -1 -2 -3 12 -13 -14 37 0
-34 -35 36 -1 -2 -3 -12 13 14 37 0
-34 -35 36 -1 -2 -3 -12 13 -14 38 0
-34 -35 36 -1 -2 -3 -12 -13 14 37 0
-34 -35 36 -1 -2 -3 -12 -13 -14 37 0
-34 -35 -36 1 2 3 12 13 14 37 0
-34 -35 -36 1 2 3 12 13 -14 0
-34 -35 -36 1 2 3 12 -13 14 37 0
-34 -35 -36 1 2 3 12 -13 -14 37 0
-34 -35 -36 1 2 3 -12 13 14 0
-34 -35 -36 1 2 3 -12 13 -14 37 0
-34 -35 -36 1 2 3 -12 -13 14 0
-34 -35 -36 1 2 3 -12 -13 -14 37 0
-34 -35 -36 1 2 -3 12 13 14 37 0
-34 -35 -36 1 2 -3 12 13 -14 0
-34 -35 -36 1 2 -3 12 -13 14 0
-34 -35 -36 1 2 -3 12 -13 -14 0
-34 -35 -36 1 2 -3 -12 13 14 0
-34 -35 -36 1 2 -3 -12 13 -14 0
-34 -35 -36 1 2 -3 -12 -13 14 0
-34 -35 -36 1 2 -3 -12 -13 -14 0
-34 -35 -36 1 -2 3 12 13 14 37 0
-34 -35 -36 1 -2 3 12 13 -14 0
-34 -35 -36 1 -2 3 12 -13 14 0
-34 -35 -36 1 -2 3 12 -13 -14 0
-34 -35 -36 1 -2 3 -12 13 14 0
-34 -35 -36 1 -2 3 -12 13 -14 0
-34 -35 -36 1 -2 3 -12 -13 14 0
-34 -35 -36 1 -2 3 -12 -13 -14 37 0
-34 -35 -36 1 -2 -3 12 13 14 0
-34 -35 -36 1 -2 -3 12 13 -14 0
-34 -35 -36 1 -2 -3 12 -13 14 0
-34 -35 -36 1 -2 -3 12 -13 -14 0
-34 -35 -36 1 -2 -3 -12 13 14 0
-34 -35 -36 1 -2 -3 -12 13 -14 0
-34 -35 -36 1 -2 -3 -12 -13 14 44 0
-34 -35 -36 1 -2 -3 -12 -13 -14 37 0
-34 -35 -36 -1 2 3 12 13 14 37 0
-34 -35 -36 -1 2 3 12 13 -14 0
-34 -35 -36 -1 2 3 12 -13 14 0
-34 -35 -36 -1 2 3 12 -13 -14 0
-34 -35 -36 -1 2 3 -12 13 14 0
-34 -35 -36 -1 2 3 -12 13 -14 0
-34 -35 -36 -1 2 3 -12 -13 14 0
-34 -35 -36 -1 2 3 -12 -13 -14 38 0
-34 -35 -36 -1 2 -3 12 13 14 0
-34 -35 -36 -1 2 -3 12 13 -14 0
-34 -35 -36 -1 2 -3 12 -13 14 0
-34 -35 -36 -1 2 -3 12 -13 -14 0
-34 -35 -36 -1 2 -3 -12 13 14 0
-34 -35 -36 -1 2 -3 -12 13 -14 0
-34 -35 -36 -1 2 -3 -12 -13 14 38 0
-34 -35 -36 -1 2 -3 -12 -13 -14 37 0
-34 -35 -36 -1 -2 3 12 13 14 37 0
-34 -35 -36 -1 -2 3 12 13 -14 0
-34 -35 -36 -1 -2 3 12 -13 14 37 0
-34 -35 -36 -1 -2 3 12 -13 -14 0
-34 -35 -36 -1 -2 3 -12 13 14 0
-34 -35 -36 -1 -2 3 -12 13 -14 46 0
-34 -35 -36 -1 -2 3 -12 -13 14 37 0
-34 -35 -36 -1 -2 3 -12 -13 -14 37 0
-34 -35 -36 -1 -2 -3 12 13 14 0
-34 -35 -36 -1 -2 -3 12 13 -14 37 0
-34 -35 -36 -1 -2 -3 12 -13 14 37 0
-34 -35 -36 -1 -2 -3 12 -13 -14 37 0
-34 -35 -36 -1 -2 -3 -12 13 14 37 0
-34 -35 -36 -1 -2 -3 -12 13 -14 0
-34 -35 -36 -1 -2 -3 -12 -13 14 37 0
-34 -35 -36 -1 -2 -3 -12 -13 -14 37 0
71 72 73 23 24 25 34 35 36 74 0
71 72 73 23 24 25 34 35 -36 74 0
71 72 73 23 24 25 34 -35 36 74 0
71 72 73 23 24 25 34 -35 -36 74 0
71 72 73 23 24 25 -34 35 36 74 0
71 72 73 23 24 25 -34 35 -36 128 0
71 72 73 23 24 25 -34 -35 36 128 0
71 72 73 23 24 25 -34 -35 -36 74 0
71 72 73 23 24 -25 34 35 36 74 0
71 72 73 23 24 -25 34 35 -36 74 0
71 72 73 23 24 -25 34 -35 36 127 0
71 72 73 23 24 -25 34 -35 -36 129 0
71 72 73 23 24 -25 -34 35 36 105 0
71 72 73 23 24 -25 -34 35 -36 134 0
71 72 73 23 24 -25 -34 -35 36 74 0
71 72 73 23 24 -25 -34 -35 -36 74 0
71 72 73 23 -24 25 34 35 36 74 0
71 72 73 23 -24 25 34 35 -36 75 0
71 72 73 23 -24 25 34 -35 36 129 0
71 72 73 23 -24 25 34 -35 -36 137 0
71 72 73 23 -24 25 -34 35 36 108 0
71 72 73 23 -24 25 -34 35 -36 122 0
71 72 73 23 -24 25 -34 -35 36 130 0
71 72 73 23 -24 25 -34 -35 -36 135 0
71 72 73 23 -24 -25 34 35 36 75 0
71 72 73 23 -24 -25 34 35 -36 106 0
71 72 73 23 -24 -25 34 -35 36 108 0
71 72 73 23 -24 -25 34 -35 -36 125 0
71 72 73 23 -24 -25 -34 35 36 139 0
71 72 73 23 -24 -25 -34 35 -36 103 0
71 72 73 23 -24 -25 -34 -35 36 123 0
71 72 73 23 -24 -25 -34 -35 -36 130 0
71 72 73 -23 24 25 34 35 36 76 0
71 72 73 -23 24 25 34 35 -36 127 0
71 72 73 -23 24 25 34 -35 36 108 0
71 72 73 -23 24 25 34 -35 -36 95 0
71 72 73 -23 24 25 -34 35 36 120 0
71 72 73 -23 24 25 -34 35 -36 99 0
71 72 73 -23 24 25 -34 -35 36 109 0
71 72 73 -23 24 25 -34 -35 -36 135 0
71 72 73 -23 24 -25 34 35 36 127 0
71 72 73 -23 24 -25 34 35 -36 107 0
71 72 73 -23 24 -25 34 -35 36 124 0
71 72 73 -23 24 -25 34 -35 -36 108 0
71 72 73 -23 24 -25 -34 35 36 91 0
71 72 73 -23 24 -25 -34 35 -36 118 0
71 72 73 -23 24 -25 -34 -35 36 130 0
71 72 73 -23 24 -25 -34 -35 -36 74 0
71 72 73 -23 -24 25 34 35 36 127 0
71 72 73 -23 -24 25 34 35 -36 129 0
71 72 73 -23 -24 25 34 -35 36 108 0
71 72 73 -23 -24 25 34 -35 -36 105 0
71 72 73 -23 -24 25 -34 35 36 105 0
71 72 73 -23 -24 25 -34 35 -36 93 0
71 72 73 -23 -24 25 -34 -35 36 135 0
71 72 73 -23 -24 25 -34 -35 -36 74 0
71 72 73 -23 -24 -25 34 35 36 74 0
71 72 73 -23 -24 -25 34 35 -36 74 0
71 72 73 -23 -24 -25 34 -35 36 105 0
71 72 73 -23 -24 -25 34 -35 -36 74 0
71 72 73 -23 -24 -25 -34 35 36 128 0
71 72 73 -23 -24 -25 -34 35 -36 74 0
71 72 73 -23 -24 -25 -34 -35 36 74 0
71 72 73 -23 -24 -25 -34 -35 -36 74 0
71 72 -73 23 24 25 34 35 36 74 0
71 72 -73 23 24 25 34 35 -36 74 0
71 72 -73 23 24 25 34 -35 36 74 0
71 72 -73 23 24 25 34 -35 -36 74 0
71 72 -73 23 24 25 -34 35 36 74 0
71 72 -73 23 24 25 -34 35 -36 128 0
71 72 -73 23 24 25 -34 -35 36 128 0
71 72 -73 23 24 25 -34 -35 -36 74 0
71 72 -73 23 24 -25 34 35 36 74 0
71 72 -73 23 24 -25 34 35 -36 74 0
71 72 -73 23 24 -25 34 -35 36 75 0
71 72 -73 23 24 -25 34 -35 -36 129 0
71 72 -73 23 24 -25 -34 35 36 105 0
71 72 -73 23 24 -25 -34 35 -36 134 0
71 72 -73 23 24 -25 -34 -35 36 74 0
71 72 -73 23 24 -25 -34 -35 -36 74 0
71 72 -73 23 -24 25 34 35 36 74 0
71 72 -73 23 -24 25 34 35 -36 127 0
71 72 -73 23 -24 25 34 -35 36 129 0
71 72 -73 23 -24 25 34 -35 -36 137 0
71 72 -73 23 -24 25 -34 35 36 108 0
71 72 -73 23 -24 25 -34 35 -36 122 0
71 72 -73 23 -24 25 -34 -35 36 130 0
71 72 -73 23 -24 25 -34 -35 -36 135 0
71 72 -73 23 -24 -25 34 35 36 127 0
71 72 -73 23 -24 -25 34 35 -36 77 0
71 72 -73 23 -24 -25 34 -35 36 78 0
71 72 -73 23 -24 -25 34 -35 -36 125 0
71 72 -73 23 -24 -25 -34 35 36 139 0
71 72 -73 23 -24 -25 -34 35 -36 103 0
71 72 -73 23 -24 -25 -34 -35 36 123 0
71 72 -73 23 -24 -25 -34 -35 -36 130 0
71 72 -73 -23 24 25 34 35 36 136 0
71 72 -73 -23 24 25 34 35 -36 75 0
71 72 -73 -23 24 25 34 -35 36 108 0
71 72 -73 -23 24 25 34 -35 -36 95 0
71 72 -73 -23 24 25 -34 35 36 120 0
71 72 -73 -23 24 25 -34 35 -36 99 0
71 72 -73 -23 24 25 -34 -35 36 109 0
71 72 -73 -23 24 25 -34 -35 -36 135 0
71 72 -73 -23 24 -25 34 35 36 75 0
71 72 -73 -23 24 -25 34 35 -36 107 0
71 72 -73 -23 24 -25 34 -35 36 124 0
71 72 -73 -23 24 -25 34 -35 -36 108 0
71 72 -73 -23 24 -25 -34 35 36 91 0
71 72 -73 -23 24 -25 -34 35 -36 118 0
71 72 -73 -23 24 -25 -34 -35 36 130 0
71 72 -73 -23 24 -25 -34 -35 -36 74 0
71 72 -73 -23 -24 25 34 35 36 75 0
71 72 -73 -23 -24 25 34 35 -36 129 0
71 72 -73 -23 -24 25 34 -35 36 108 0
71 72 -73 -23 -24 25 34 -35 -36 105 0
71 72 -73 -23 -24 25 -34 35 36 105 0
71 72 -73 -23 -24 25 -34 35 -36 93 0
71 72 -73 -23 -24 25 -34 -35 36 135 0
71 72 -73 -23 -24 25 -34 -35 -36 74 0
71 72 -73 -23 -24 -25 34 35 36 74 0
71 72 -73 -23 -24 -25 34 35 -36 74 0
71 72 -73 -23 -24 -25 34 -35 36 105 0
71 72 -73 -23 -24 -25 34 -35 -36 74 0
71 72 -73 -23 -24 -25 -34 35 36 128 0
71 72 -73 -23 -24 -25 -34 35 -36 74 0
71 72 -73 -23 -24 -25 -34 -35 36 74 0
71 72 -73 -23 -24 -25 -34 -35 -36 74 0
71 -72 73 23 24 25 34 35 36 74 0
71 -72 73 23 24 25 34 35 -36 74 0
71 -72 73 23 24 25 34 -35 36 74 0
71 -72 73 23 24 25 34 -35 -36 74 0
71 -72 73 23 24 25 -34 35 36 74 0
71 -72 73 23 24 25 -34 35 -36 128 0
71 -72 73 23 24 25 -34 -35 36 128 0
71 -72 73 23 24 25 -34 -35 -36 74 0
71 -72 73 23 24 -25 34 35 36 74 0
71 -72 73 23 24 -25 34 35 -36 74 0
71 -72 73 23 24 -25 34 -35 36 127 0
71 -72 73 23 24 -25 34 -35 -36 79 0
71 -72 73 23 24 -25 -34 35 36 105 0
71 -72 73 23 24 -25 -34 35 -36 134 0
71 -72 73 23 24 -25 -34 -35 36 74 0
71 -72 73 23 24 -25 -34 -35 -36 74 0
71 -72 73 23 -24 25 34 35 36 74 0
71 -72 73 23 -24 25 34 35 -36 127 0
71 -72 73 23 -24 25 34 -35 36 79 0
71 -72 73 23 -24 25 34 -35 -36 110 0
71 -72 73 23 -24 25 -34 35 36 108 0
71 -72 73 23 -24 25 -34 35 -36 122 0
71 -72 73 23 -24 25 -34 -35 36 130 0
71 -72 73 23 -24 25 -34 -35 -36 135 0
71 -72 73 23 -24 -25 34 35 36 127 0
71 -72 73 23 -24 -25 34 35 -36 106 0
71 -72 73 23 -24 -25 34 -35 36 80 0
71 -72 73 23 -24 -25 34 -35 -36 81 0
71 -72 73 23 -24 -25 -34 35 36 139 0
71 -72 73 23 -24 -25 -34 35 -36 103 0
71 -72 73 23 -24 -25 -34 -35 36 123 0
71 -72 73 23 -24 -25 -34 -35 -36 130 0
71 -72 73 -23 24 25 34 35 36 136 0
71 -72 73 -23 24 25 34 35 -36 127 0
71 -72 73 -23 24 25 34 -35 36 80 0
71 -72 73 -23 24 25 34 -35 -36 95 0
71 -72 73 -23 24 25 -34 35 36 120 0
71 -72 73 -23 24 25 -34 35 -36 99 0
71 -72 73 -23 24 25 -34 -35 36 109 0
71 -72 73 -23 24 25 -34 -35 -36 135 0
71 -72 73 -23 24 -25 34 35 36 127 0
71 -72 73 -23 24 -25 34 35 -36 82 0
71 -72 73 -23 24 -25 34 -35 36 83 0
71 -72 73 -23 24 -25 34 -35 -36 108 0
71 -72 73 -23 24 -25 -34 35 36 91 0
71 -72 73 -23 24 -25 -34 35 -36 118 0
71 -72 73 -23 24 -25 -34 -35 36 130 0
71 -72 73 -23 24 -25 -34 -35 -36 74 0
71 -72 73 -23 -24 25 34 35 36 127 0
71 -72 73 -23 -24 25 34 35 -36 79 0
71 -72 73 -23 -24 25 34 -35 36 94 0
71 -72 73 -23 -24 25 34 -35 -36 105 0
71 -72 73 -23 -24 25 -34 35 36 105 0
71 -72 73 -23 -24 25 -34 35 -36 93 0
71 -72 73 -23 -24 25 -34 -35 36 135 0
71 -72 73 -23 -24 25 -34 -35 -36 74 0
71 -72 73 -23 -24 -25 34 35 36 74 0
71 -72 73 -23 -24 -25 34 35 -36 74 0
71 -72 73 -23 -24 -25 34 -35 36 105 0
71 -72 73 -23 -24 -25 34 -35 -36 74 0
71 -72 73 -23 -24 -25 -34 35 36 128 0
71 -72 73 -23 -24 -25 -34 35 -36 74 0
71 -72 73 -23 -24 -25 -34 -35 36 74 0
71 -72 73 -23 -24 -25 -34 -35 -36 74 0
71 -72 -73 23 24 25 34 35 36 74 0
71 -72 -73 23 24 25 34 35 -36 74 0
71 -72 -73 23 24 25 34 -35 36 74 0
71 -72 -73 23 24 25 34 -35 -36 74 0
71 -72 -73 23 24 25 -34 35 36 74 0
71 -72 -73 23 24 25 -34 35 -36 128 0
71 -72 -73 23 24 25 -34 -35 36 128 0
71 -72 -73 23 24 25 -34 -35 -36 74 0
71 -72 -73 23 24 -25 34 35 36 74 0
71 -72 -73 23 24 -25 34 35 -36 74 0
71 -72 -73 23 24 -25 34 -35 36 127 0
71 -72 -73 23 24 -25 34 -35 -36 129 0
71 -72 -73 23 24 -25 -34 35 36 111 0
71 -72 -73 23 24 -25 -34 35 -36 134 0
71 -72 -73 23 24 -25 -34 -35 36 74 0
71 -72 -73 23 24 -25 -34 -35 -36 74 0
71 -72 -73 23 -24 25 34 35 36 74 0
71 -72 -73 23 -24 25 34 35 -36 127 0
71 -72 -73 23 -24 25 34 -35 36 129 0
71 -72 -73 23 -24 25 34 -35 -36 84 0
71 -72 -73 23 -24 25 -34 35 36 94 0
71 -72 -73 23 -24 25 -34 35 -36 122 0
71 -72 -73 23 -24 25 -34 -35 36 130 0
71 -72 -73 23 -24 25 -34 -35 -36 135 0
71 -72 -73 23 -24 -25 34 35 36 127 0
71 -72 -73 23 -24 -25 34 35 -36 106 0
71 -72 -73 23 -24 -25 34 -35 36 108 0
71 -72 -73 23 -24 -25 34 -35 -36 104 0
71 -72 -73 23 -24 -25 -34 35 36 121 0
71 -72 -73 23 -24 -25 -34 35 -36 103 0
71 -72 -73 23 -24 -25 -34 -35 36 123 0
71 -72 -73 23 -24 -25 -34 -35 -36 130 0
71 -72 -73 -23 24 25 34 35 36 136 0
71 -72 -73 -23 24 25 34 35 -36 127 0
71 -72 -73 -23 24 25 34 -35 36 78 0
71 -72 -73 -23 24 25 34 -35 -36 138 0
71 -72 -73 -23 24 25 -34 35 36 120 0
71 -72 -73 -23 24 25 -34 35 -36 99 0
71 -72 -73 -23 24 25 -34 -35 36 109 0
71 -72 -73 -23 24 25 -34 -35 -36 135 0
71 -72 -73 -23 24 -25 34 35 36 127 0
71 -72 -73 -23 24 -25 34 35 -36 107 0
71 -72 -73 -23 24 -25 34 -35 36 85 0
71 -72 -73 -23 24 -25 34 -35 -36 94 0
71 -72 -73 -23 24 -25 -34 35 36 91 0
71 -72 -73 -23 24 -25 -34 35 -36 118 0
71 -72 -73 -23 24 -25 -34 -35 36 130 0
71 -72 -73 -23 24 -25 -34 -35 -36 74 0
71 -72 -73 -23 -24 25 34 35 36 127 0
71 -72 -73 -23 -24 25 34 35 -36 129 0
71 -72 -73 -23 -24 25 34 -35 36 98 0
71 -72 -73 -23 -24 25 34 -35 -36 111 0
71 -72 -73 -23 -24 25 -34 35 36 105 0
71 -72 -73 -23 -24 25 -34 35 -36 93 0
71 -72 -73 -23 -24 25 -34 -35 36 135 0
71 -72 -73 -23 -24 25 -34 -35 -36 74 0
71 -72 -73 -23 -24 -25 34 35 36 74 0
71 -72 -73 -23 -24 -25 34 35 -36 74 0
71 -72 -73 -23 -24 -25 34 -35 36 111 0
71 -72 -73 -23 -24 -25 34 -35 -36 74 0
71 -72 -73 -23 -24 -25 -34 35 36 128 0
71 -72 -73 -23 -24 -25 -34 35 -36 74 0
71 -72 -73 -23 -24 -25 -34 -35 36 74 0
71 -72 -73 -23 -24 -25 -34 -35 -36 74 0
-71 72 73 23 24 25 34 35 36 74 0
-71 72 73 23 24 25 34 35 -36 74 0
-71 72 73 23 24 25 34 -35 36 74 0
-71 72 73 23 24 25 34 -35 -36 74 0
-71 72 73 23 24 25 -34 35 36 74 0
-71 72 73 23 24 25 -34 35 -36 119 0
-71 72 73 23 24 25 -34 -35 36 128 0
-71 72 73 23 24 25 -34 -35 -36 74 0
-71 72 73 23 24 -25 34 35 36 74 0
-71 72 73 23 24 -25 34 35 -36 74 0
-71 72 73 23 24 -25 34 -35 36 127 0
-71 72 73 23 24 -25 34 -35 -36 129 0
-71 72 73 23 24 -25 -34 35 36 111 0
-71 72 73 23 24 -25 -34 35 -36 133 0
-71 72 73 23 24 -25 -34 -35 36 74 0
-71 72 73 23 24 -25 -34 -35 -36 74 0
-71 72 73 23 -24 25 34 35 36 74 0
-71 72 73 23 -24 25 34 35 -36 127 0
-71 72 73 23 -24 25 34 -35 36 129 0
-71 72 73 23 -24 25 34 -35 -36 137 0
-71 72 73 23 -24 25 -34 35 36 98 0
-71 72 73 23 -24 25 -34 35 -36 92 0
-71 72 73 23 -24 25 -34 -35 36 130 0
-71 72 73 23 -24 25 -34 -35 -36 135 0
-71 72 73 23 -24 -25 34 35 36 127 0
-71 72 73 23 -24 -25 34 35 -36 106 0
-71 72 73 23 -24 -25 34 -35 36 108 0
-71 72 73 23 -24 -25 34 -35 -36 125 0
-71 72 73 23 -24 -25 -34 35 36 126 0
-71 72 73 23 -24 -25 -34 35 -36 97 0
-71 72 73 23 -24 -25 -34 -35 36 123 0
-71 72 73 23 -24 -25 -34 -35 -36 130 0
-71 72 73 -23 24 25 34 35 36 136 0
-71 72 73 -23 24 25 34 35 -36 127 0
-71 72 73 -23 24 25 34 -35 36 108 0
-71 72 73 -23 24 25 34 -35 -36 112 0
-71 72 73 -23 24 25 -34 35 36 89 0
-71 72 73 -23 24 25 -34 35 -36 99 0
-71 72 73 -23 24 25 -34 -35 36 109 0
-71 72 73 -23 24 25 -34 -35 -36 135 0
-71 72 73 -23 24 -25 34 35 36 127 0
-71 72 73 -23 24 -25 34 35 -36 107 0
-71 72 73 -23 24 -25 34 -35 36 124 0
-71 72 73 -23 24 -25 34 -35 -36 98 0
-71 72 73 -23 24 -25 -34 35 36 131 0
-71 72 73 -23 24 -25 -34 35 -36 118 0
-71 72 73 -23 24 -25 -34 -35 36 130 0
-71 72 73 -23 24 -25 -34 -35 -36 74 0
-71 72 73 -23 -24 25 34 35 36 127 0
-71 72 73 -23 -24 25 34 35 -36 129 0
-71 72 73 -23 -24 25 34 -35 36 108 0
-71 72 73 -23 -24 25 34 -35 -36 111 0
-71 72 73 -23 -24 25 -34 35 36 116 0
-71 72 73 -23 -24 25 -34 35 -36 93 0
-71 72 73 -23 -24 25 -34 -35 36 135 0
-71 72 73 -23 -24 25 -34 -35 -36 74 0
-71 72 73 -23 -24 -25 34 35 36 74 0
-71 72 73 -23 -24 -25 34 35 -36 74 0
-71 72 73 -23 -24 -25 34 -35 36 111 0
-71 72 73 -23 -24 -25 34 -35 -36 74 0
-71 72 73 -23 -24 -25 -34 35 36 128 0
-71 72 73 -23 -24 -25 -34 35 -36 74 0
-71 72 73 -23 -24 -25 -34 -35 36 74 0
-71 72 73 -23 -24 -25 -34 -35 -36 74 0
-71 72 -73 23 24 25 34 35 36 74 0
-71 72 -73 23 24 25 34 35 -36 74 0
-71 72 -73 23 24 25 34 -35 36 74 0
-71 72 -73 23 24 25 34 -35 -36 74 0
-71 72 -73 23 24 25 -34 35 36 74 0
-71 72 -73 23 24 25 -34 35 -36 128 0
-71 72 -73 23 24 25 -34 -35 36 119 0
-71 72 -73 23 24 25 -34 -35 -36 74 0
-71 72 -73 23 24 -25 34 35 36 74 0
-71 72 -73 23 24 -25 34 35 -36 74 0
-71 72 -73 23 24 -25 34 -35 36 127 0
-71 72 -73 23 24 -25 34 -35 -36 129 0
-71 72 -73 23 24 -25 -34 35 36 105 0
-71 72 -73 23 24 -25 -34 35 -36 134 0
-71 72 -73 23 24 -25 -34 -35 36 74 0
-71 72 -73 23 24 -25 -34 -35 -36 74 0
-71 72 -73 23 -24 25 34 35 36 74 0
-71 72 -73 23 -24 25 34 35 -36 127 0
-71 72 -73 23 -24 25 34 -35 36 129 0
-71 72 -73 23 -24 25 34 -35 -36 137 0
-71 72 -73 23 -24 25 -34 35 36 108 0
-71 72 -73 23 -24 25 -34 35 -36 96 0
-71 72 -73 23 -24 25 -34 -35 36 130 0
-71 72 -73 23 -24 25 -34 -35 -36 135 0
-71 72 -73 23 -24 -25 34 35 36 127 0
-71 72 -73 23 -24 -25 34 35 -36 106 0
-71 72 -73 23 -24 -25 34 -35 36 108 0
-71 72 -73 23 -24 -25 34 -35 -36 125 0
-71 72 -73 23 -24 -25 -34 35 36 139 0
-71 72 -73 23 -24 -25 -34 35 -36 86 0
-71 72 -73 23 -24 -25 -34 -35 36 113 0
-71 72 -73 23 -24 -25 -34 -35 -36 130 0
-71 72 -73 -23 24 25 34 35 36 136 0
-71 72 -73 -23 24 25 34 35 -36 127 0
-71 72 -73 -23 24 25 34 -35 36 108 0
-71 72 -73 -23 24 25 34 -35 -36 95 0
-71 72 -73 -23 24 25 -34 35 36 120 0
-71 72 -73 -23 24 25 -34 35 -36 115 0
-71 72 -73 -23 24 25 -34 -35 36 109 0
-71 72 -73 -23 24 25 -34 -35 -36 135 0
-71 72 -73 -23 24 -25 34 35 36 127 0
-71 72 -73 -23 24 -25 34 35 -36 107 0
-71 72 -73 -23 24 -25 34 -35 36 124 0
-71 72 -73 -23 24 -25 34 -35 -36 108 0
-71 72 -73 -23 24 -25 -34 35 36 100 0
-71 72 -73 -23 24 -25 -34 35 -36 101 0
-71 72 -73 -23 24 -25 -34 -35 36 130 0
-71 72 -73 -23 24 -25 -34 -35 -36 74 0
-71 72 -73 -23 -24 25 34 35 36 127 0
-71 72 -73 -23 -24 25 34 35 -36 129 0
-71 72 -73 -23 -24 25 34 -35 36 108 0
-71 72 -73 -23 -24 25 34 -35 -36 105 0
-71 72 -73 -23 -24 25 -34 35 36 116 0
-71 72 -73 -23 -24 25 -34 35 -36 87 0
-71 72 -73 -23 -24 25 -34 -35 36 135 0
-71 72 -73 -23 -24 25 -34 -35 -36 74 0
-71 72 -73 -23 -24 -25 34 35 36 74 0
-71 72 -73 -23 -24 -25 34 35 -36 74 0
-71 72 -73 -23 -24 -25 34 -35 36 105 0
-71 72 -73 -23 -24 -25 34 -35 -36 74 0
-71 72 -73 -23 -24 -25 -34 35 36 119 0
-71 72 -73 -23 -24 -25 -34 35 -36 74 0
-71 72 -73 -23 -24 -25 -34 -35 36 74 0
-71 72 -73 -23 -24 -25 -34 -35 -36 74 0
-71 -72 73 23 24 25 34 35 36 74 0
-71 -72 73 23 24 25 34 35 -36 74 0
-71 -72 73 23 24 25 34 -35 36 74 0
-71 -72 73 23 24 25 34 -35 -36 74 0
-71 -72 73 23 24 25 -34 35 36 74 0
-71 -72 73 23 24 25 -34 35 -36 128 0
-71 -72 73 23 24 25 -34 -35 36 128 0
-71 -72 73 23 24 25 -34 -35 -36 74 0
-71 -72 73 23 24 -25 34 35 36 74 0
-71 -72 73 23 24 -25 34 35 -36 74 0
-71 -72 73 23 24 -25 34 -35 36 127 0
-71 -72 73 23 24 -25 34 -35 -36 129 0
-71 -72 73 23 24 -25 -34 35 36 105 0
-71 -72 73 23 24 -25 -34 35 -36 134 0
-71 -72 73 23 24 -25 -34 -35 36 74 0
-71 -72 73 23 24 -25 -34 -35 -36 74 0
-71 -72 73 23 -24 25 34 35 36 74 0
-71 -72 73 23 -24 25 34 35 -36 127 0
-71 -72 73 23 -24 25 34 -35 36 129 0
-71 -72 73 23 -24 25 34 -35 -36 137 0
-71 -72 73 23 -24 25 -34 35 36 108 0
-71 -72 73 23 -24 25 -34 35 -36 122 0
-71 -72 73 23 -24 25 -34 -35 36 132 0
-71 -72 73 23 -24 25 -34 -35 -36 135 0
-71 -72 73 23 -24 -25 34 35 36 127 0
-71 -72 73 23 -24 -25 34 35 -36 106 0
-71 -72 73 23 -24 -25 34 -35 36 108 0
-71 -72 73 23 -24 -25 34 -35 -36 125 0
-71 -72 73 23 -24 -25 -34 35 36 139 0
-71 -72 73 23 -24 -25 -34 35 -36 103 0
-71 -72 73 23 -24 -25 -34 -35 36 90 0
-71 -72 73 23 -24 -25 -34 -35 -36 130 0
-71 -72 73 -23 24 25 34 35 36 136 0
-71 -72 73 -23 24 25 34 35 -36 127 0
-71 -72 73 -23 24 25 34 -35 36 108 0
-71 -72 73 -23 24 25 34 -35 -36 95 0
-71 -72 73 -23 24 25 -34 35 36 120 0
-71 -72 73 -23 24 25 -34 35 -36 114 0
-71 -72 73 -23 24 25 -34 -35 36 117 0
-71 -72 73 -23 24 25 -34 -35 -36 135 0
-71 -72 73 -23 24 -25 34 35 36 127 0
-71 -72 73 -23 24 -25 34 35 -36 107 0
-71 -72 73 -23 24 -25 34 -35 36 124 0
-71 -72 73 -23 24 -25 34 -35 -36 108 0
-71 -72 73 -23 24 -25 -34 35 36 91 0
-71 -72 73 -23 24 -25 -34 35 -36 102 0
-71 -72 73 -23 24 -25 -34 -35 36 130 0
-71 -72 73 -23 24 -25 -34 -35 -36 74 0
-71 -72 73 -23 -24 25 34 35 36 127 0
-71 -72 73 -23 -24 25 34 35 -36 129 0
-71 -72 73 -23 -24 25 34 -35 36 108 0
-71 -72 73 -23 -24 25 34 -35 -36 105 0
-71 -72 73 -23 -24 25 -34 35 36 105 0
-71 -72 73 -23 -24 25 -34 35 -36 88 0
-71 -72 73 -23 -24 25 -34 -35 36 135 0
-71 -72 73 -23 -24 25 -34 -35 -36 74 0
-71 -72 73 -23 -24 -25 34 35 36 74 0
-71 -72 73 -23 -24 -25 34 35 -36 74 0
-71 -72 73 -23 -24 -25 34 -35 36 105 0
-71 -72 73 -23 -24 -25 34 -35 -36 74 0
-71 -72 73 -23 -24 -25 -34 35 36 128 0
-71 -72 73 -23 -24 -25 -34 35 -36 74 0
-71 -72 73 -23 -24 -25 -34 -35 36 74 0
-71 -72 73 -23 -24 -25 -34 -35 -36 74 0
-71 -72 -73 23 24 25 34 35 36 74 0
-71 -72 -73 23 24 25 34 35 -36 74 0
-71 -72 -73 23 24 25 34 -35 36 74 0
-71 -72 -73 23 24 25 34 -35 -36 74 0
-71 -72 -73 23 24 25 -34 35 36 74 0
-71 -72 -73 23 24 25 -34 35 -36 128 0
-71 -72 -73 23 24 25 -34 -35 36 128 0
-71 -72 -73 23 24 25 -34 -35 -36 74 0
-71 -72 -73 23 24 -25 34 35 36 74 0
-71 -72 -73 23 24 -25 34 35 -36 74 0
-71 -72 -73 23 24 -25 34 -35 36 127 0
-71 -72 -73 23 24 -25 34 -35 -36 129 0
-71 -72 -73 23 24 -25 -34 35 36 105 0
-71 -72 -73 23 24 -25 -34 35 -36 134 0
-71 -72 -73 23 24 -25 -34 -35 36 74 0
-71 -72 -73 23 24 -25 -34 -35 -36 74 0
-71 -72 -73 23 -24 25 34 35 36 74 0
-71 -72 -73 23 -24 25 34 35 -36 127 0
-71 -72 -73 23 -24 25 34 -35 36 129 0
-71 -72 -73 23 -24 25 34 -35 -36 137 0
-71 -72 -73 23 -24 25 -34 35 36 108 0
-71 -72 -73 23 -24 25 -34 35 -36 122 0
-71 -72 -73 23 -24 25 -34 -35 36 130 0
-71 -72 -73 23 -24 25 -34 -35 -36 140 0
-71 -72 -73 23 -24 -25 34 35 36 127 0
-71 -72 -73 23 -24 -25 34 35 -36 106 0
-71 -72 -73 23 -24 -25 34 -35 36 108 0
-71 -72 -73 23 -24 -25 34 -35 -36 125 0
-71 -72 -73 23 -24 -25 -34 35 36 139 0
-71 -72 -73 23 -24 -25 -34 35 -36 103 0
-71 -72 -73 23 -24 -25 -34 -35 36 123 0
-71 -72 -73 23 -24 -25 -34 -35 -36 132 0
-71 -72 -73 -23 24 25 34 35 36 136 0
-71 -72 -73 -23 24 25 34 35 -36 127 0
-71 -72 -73 -23 24 25 34 -35 36 108 0
-71 -72 -73 -23 24 25 34 -35 -36 95 0
-71 -72 -73 -23 24 25 -34 35 36 120 0
-71 -72 -73 -23 24 25 -34 35 -36 99 0
-71 -72 -73 -23 24 25 -34 -35 36 109 0
-71 -72 -73 -23 24 25 -34 -35 -36 140 0
-71 -72 -73 -23 24 -25 34 35 36 127 0
-71 -72 -73 -23 24 -25 34 35 -36 107 0
-71 -72 -73 -23 24 -25 34 -35 36 124 0
-71 -72 -73 -23 24 -25 34 -35 -36 108 0
-71 -72 -73 -23 24 -25 -34 35 36 91 0
-71 -72 -73 -23 24 -25 -34 35 -36 118 0
-71 -72 -73 -23 24 -25 -34 -35 36 132 0
-71 -72 -73 -23 24 -25 -34 -35 -36 74 0
-71 -72 -73 -23 -24 25 34 35 36 127 0
-71 -72 -73 -23 -24 25 34 35 -36 129 0
-71 -72 -73 -23 -24 25 34 -35 36 108 0
-71 -72 -73 -23 -24 25 34 -35 -36 105 0
-71 -72 -73 -23 -24 25 -34 35 36 105 0
-71 -72 -73 -23 -24 25 -34 35 -36 93 0
-71 -72 -73 -23 -24 25 -34 -35 36 140 0
-71 -72 -73 -23 -24 25 -34 -35 -36 74 0
-71 -72 -73 -23 -24 -25 34 35 36 74 0
-71 -72 -73 -23 -24 -25 34 35 -36 74 0
-71 -72 -73 -23 -24 -25 34 -35 36 105 0
-71 -72 -73 -23 -24 -25 34 -35 -36 74 0
-71 -72 -73 -23 -24 -25 -34 35 36 128 0
-71 -72 -73 -23 -24 -25 -34 35 -36 74 0
-71 -72 -73 -23 -24 -25 -34 -35 36 74 0
-71 -72 -73 -23 -24 -25 -34 -35 -36 74 0
